0,133,195,35,128,68,75,175,65,38,65
133,0,154,99,145,51,97,169,115,56,25
195,154,0,165,82,112,121,142,111,44,54
35,99,165,0,93,190,184,141,96,150,25
128,145,82,93,0,38,141,185,102,184,186
68,51,112,190,38,0,72,140,124,94,54
75,97,121,184,141,72,0,172,124,119,50
175,169,142,141,185,140,172,0,196,102,84
65,115,111,96,102,124,124,196,0,38,168
38,56,44,150,184,94,119,102,38,0,29
65,25,54,25,186,54,50,84,168,29,0
